(set-logic ALL)
(declare-const BAV1 Bool)
(declare-const BAV2 Bool)
(declare-const GEN1 String)
(set-info :smt-lib-version 2.0)
(declare-fun x () String)
(declare-const I Int)
(assert (= x "\0\1\2\3\04\005\x06\7\8\9ABC\\\" \t\a\b"))
(assert (= I (str.len x)))
(assert (= BAV1 (= x "\0\1\2\3\04\005\x06\7\8\9ABC\\\" \t\a\b")))
(assert (= BAV2 (= I (str.len x))))
(check-sat)
(get-model)